Route #1: 1 38 35 34 4 18 15 5 37 1
Route #2: 1 30 19 49 51 2 44 36 48 17 41 1
Route #3: 1 26 42 29 20 28 53 1
Route #4: 1 31 23 14 55 24 25 45 1
Route #5: 1 22 13 33 11 6 54 1
Route #6: 1 46 7 9 1
Route #7: 1 3 52 16 12 39 1
Route #8: 1 43 32 21 47 27 8 1
Route #9: 1 10 40 50 1
cost 1324.1069347850896
